2376830
47,62,15,51,63,10,25,54,6,45,33,65,5,29,24,40,28,22,48,18,53,12,0,46,23,11,39,4,59,55,31,41,2,60,20,37,66,42,21,32,56,17,9,13,30,43,67,52,38,50,61,34,49,27,7,36,58,35,16,57,8,14,26,44,64,3,19,1
